150
3
85, 26, 48, 21, 22, 95, 43, 45, 55, 52, 11, 5, 7, 3, 10, 30, 35, 20, 15, 61
79, 32, 47, 18, 26, 85, 33, 40, 45, 59, 13, 5, 2, 3, 15, 20, 10, 11, 12, 13
1, 1, 2, 1, 2, 1, 1, 2, 2, 2, 1, 1, 2, 3, 3, 3, 3, 3, 1, 2